
  12    4
  10   10   10   10

   0   0   0   0   0   2 2 3 
   1  10  10  10  10   2 5 4 
  10  10  10  10  10   1 4 
   6  10  10  10  10   2 8 6 
   6  10  10  10  10   3 10 8 7 
   2  10  10  10  10   2 10 7 
   4  10  10  10  10   1 9 
   7  10  10  10  10   1 9 
   8  10  10  10  10   1 11 
   3  10  10  10  10   1 11 
   4  10  10  10  10   1 12
   0   0   0   0   0   0 
